unsat
(:max-memory         18.52
 :memory             18.32
 :nlsat-arith-var    4
 :nlsat-atoms        19
 :nlsat-bool-var     1
 :nlsat-clauses      12
 :nlsat-conflicts    6
 :nlsat-decisions    1
 :nlsat-propagations 28
 :nlsat-stages       7
 :num-allocs         67907
 :rlimit-count       2526
 :time               0.00
 :total-time         0.02)
